Route #1: 47 4 13 41 40 19 42 44 15 37
Route #2: 27 32 11 16 20 29 21 50 49 5
Route #3: 6 48 23 7 8 28 3 36 35 22 1
Route #4: 46 38 9 34 30 10 39 33 45 17 12
Route #5: 18 25 14 24 43 26 31 2
Cost 604
